50 8
591 559
410 746
276 269
828 281
598 350
102 556
785 181
642 206
754 855
673 161
197 467
414 314
667 159
642 205
689 221
393 362
382 233
492 247
371 158
390 438
242 361
580 389
285 341
464 711
778 759
154 635
258 207
583 377
498 230
741 183
750 207
303 152
450 260
682 899
730 215
570 177
435 403
461 481
637 725
305 226
111 190
434 342
433 302
156 375
558 772
481 536
274 355
96 198
710 324
767 912
